 &bands
    prefix  = ''
    outdir = './'
    filband = 'bands.dat'
    lsym = .true.
 /
